experiment/data/hgs-res/Vrp-Set-X-n204/Vrp-Set-X-n204-hgs/0.hgs1.vrp
NAME : 0
COMMENT : CVRP Instance
TYPE : CVRP
DIMENSION : 204
EDGE_WEIGHT_TYPE : EUC_2D
CAPACITY : 836
NODE_COORD_SECTION
1	500.0	500.0
2	221.0	542.0
3	320.0	456.0
4	576.0	827.0
5	679.0	994.0
6	371.0	461.0
7	961.0	844.0
8	986.0	379.0
9	175.0	540.0
10	126.0	517.0
11	329.0	626.0
12	477.0	890.0
13	191.0	356.0
14	584.0	917.0
15	308.0	653.0
16	0.0	7.0
17	273.0	302.0
18	672.0	381.0
19	235.0	415.0
20	583.0	149.0
21	672.0	124.0
22	644.0	646.0
23	400.0	544.0
24	832.0	999.0
25	842.0	964.0
26	582.0	965.0
27	544.0	311.0
28	429.0	2.0
29	939.0	849.0
30	898.0	605.0
31	363.0	130.0
32	639.0	874.0
33	323.0	201.0
34	829.0	350.0
35	7.0	53.0
36	801.0	92.0
37	57.0	330.0
38	943.0	0.0
39	579.0	275.0
40	833.0	402.0
41	408.0	940.0
42	635.0	871.0
43	631.0	630.0
44	733.0	313.0
45	344.0	619.0
46	628.0	291.0
47	674.0	92.0
48	74.0	602.0
49	38.0	354.0
50	473.0	107.0
51	668.0	279.0
52	510.0	811.0
53	366.0	16.0
54	49.0	182.0
55	528.0	946.0
56	271.0	745.0
57	405.0	872.0
58	65.0	893.0
59	622.0	488.0
60	668.0	978.0
61	939.0	73.0
62	556.0	632.0
63	270.0	446.0
64	586.0	348.0
65	951.0	167.0
66	385.0	308.0
67	247.0	997.0
68	992.0	460.0
69	128.0	590.0
70	746.0	847.0
71	279.0	459.0
72	428.0	183.0
73	364.0	167.0
74	656.0	687.0
75	547.0	792.0
76	517.0	152.0
77	252.0	618.0
78	464.0	284.0
79	184.0	96.0
80	457.0	269.0
81	590.0	47.0
82	348.0	609.0
83	777.0	112.0
84	528.0	198.0
85	877.0	457.0
86	812.0	650.0
87	864.0	723.0
88	584.0	875.0
89	817.0	233.0
90	186.0	909.0
91	439.0	447.0
92	560.0	994.0
93	818.0	658.0
94	134.0	903.0
95	447.0	951.0
96	969.0	519.0
97	488.0	401.0
98	142.0	666.0
99	287.0	534.0
100	399.0	181.0
101	141.0	22.0
102	29.0	248.0
103	313.0	643.0
104	20.0	974.0
105	294.0	475.0
106	439.0	214.0
107	327.0	361.0
108	79.0	657.0
109	110.0	653.0
110	332.0	440.0
111	242.0	943.0
112	96.0	492.0
113	62.0	541.0
114	478.0	199.0
115	267.0	486.0
116	184.0	686.0
117	119.0	370.0
118	342.0	587.0
119	316.0	552.0
120	90.0	370.0
121	417.0	225.0
122	111.0	575.0
123	458.0	221.0
124	321.0	337.0
125	287.0	454.0
126	364.0	560.0
127	121.0	609.0
128	215.0	488.0
129	351.0	232.0
130	84.0	585.0
131	14.0	718.0
132	344.0	337.0
133	233.0	472.0
134	216.0	497.0
135	133.0	584.0
136	188.0	327.0
137	175.0	352.0
138	281.0	702.0
139	247.0	645.0
140	215.0	837.0
141	424.0	677.0
142	438.0	666.0
143	454.0	547.0
144	354.0	242.0
145	96.0	387.0
146	462.0	532.0
147	25.0	980.0
148	343.0	658.0
149	127.0	368.0
150	100.0	613.0
151	245.0	363.0
152	356.0	488.0
153	259.0	410.0
154	480.0	270.0
155	196.0	492.0
156	303.0	336.0
157	243.0	888.0
158	453.0	226.0
159	32.0	993.0
160	287.0	528.0
161	492.0	238.0
162	54.0	698.0
163	442.0	195.0
164	17.0	930.0
165	285.0	277.0
166	75.0	932.0
167	167.0	560.0
168	368.0	360.0
169	155.0	710.0
170	328.0	277.0
171	355.0	399.0
172	53.0	641.0
173	236.0	522.0
174	421.0	346.0
175	308.0	118.0
176	82.0	739.0
177	345.0	467.0
178	408.0	363.0
179	101.0	658.0
180	419.0	188.0
181	36.0	952.0
182	250.0	337.0
183	232.0	388.0
184	498.0	308.0
185	18.0	945.0
186	362.0	702.0
187	429.0	256.0
188	105.0	507.0
189	245.0	521.0
190	576.0	280.0
191	269.0	485.0
192	257.0	647.0
193	106.0	618.0
194	269.0	505.0
195	423.0	470.0
196	206.0	467.0
197	126.0	669.0
198	228.0	795.0
199	241.0	305.0
200	137.0	433.0
201	210.0	392.0
202	371.0	627.0
203	219.0	344.0
204	96.0	427.0
DEMAND_SECTION
1	0
2	61
3	96
4	52
5	58
6	81
7	76
8	51
9	98
10	65
11	84
12	63
13	79
14	89
15	70
16	93
17	84
18	100
19	70
20	52
21	86
22	69
23	50
24	59
25	79
26	53
27	66
28	65
29	70
30	74
31	86
32	77
33	83
34	50
35	76
36	62
37	73
38	54
39	100
40	99
41	59
42	73
43	74
44	97
45	63
46	83
47	97
48	81
49	61
50	91
51	78
52	87
53	56
54	81
55	91
56	62
57	53
58	82
59	77
60	94
61	99
62	92
63	76
64	83
65	89
66	61
67	53
68	94
69	84
70	55
71	54
72	61
73	86
74	53
75	60
76	55
77	82
78	86
79	60
80	71
81	98
82	67
83	93
84	63
85	64
86	96
87	85
88	64
89	95
90	71
91	69
92	94
93	79
94	68
95	50
96	97
97	83
98	72
99	99
100	88
101	72
102	84
103	88
104	54
105	83
106	83
107	62
108	80
109	68
110	99
111	57
112	75
113	51
114	54
115	85
116	71
117	92
118	64
119	80
120	78
121	61
122	98
123	61
124	52
125	92
126	55
127	55
128	83
129	73
130	56
131	80
132	82
133	71
134	93
135	93
136	92
137	58
138	88
139	50
140	58
141	54
142	73
143	82
144	59
145	80
146	81
147	74
148	99
149	70
150	89
151	69
152	68
153	61
154	88
155	75
156	60
157	72
158	54
159	86
160	55
161	66
162	94
163	69
164	65
165	63
166	84
167	66
168	89
169	71
170	95
171	95
172	80
173	74
174	61
175	79
176	87
177	90
178	72
179	81
180	86
181	85
182	71
183	100
184	99
185	51
186	68
187	80
188	55
189	52
190	68
191	87
192	79
193	71
194	58
195	87
196	78
197	83
198	57
199	52
200	57
201	78
202	80
203	66
204	84
DEPOT_SECTION
1
-1
EOF
