experiment/data/hgs-res/Vrp-Set-X-n204/Vrp-Set-X-n204-hgs/0.hgs1.tour
Route #1: 90 194 142 145
Route #2: 5 109 152 182 200 18 62 70 124 2
Route #3: 195 199 203 144 116 148 136 12 135 202 150
Route #4: 119 48 36 101 53 34 15 100 78 32 177
Route #5: 170 106 123 155 181 198 16 164 169 131 167
Route #6: 173 65 143 128 72 30 174 52 27 49 75 83
Route #7: 79 186 120 99 179 71 162 105 157 122 113 160
Route #8: 96 77 153 183 26 189 38 45 50 63
Route #9: 88 64 60 37 35 82 20 46 80 19
Route #10: 17 43 33 39 84 7 67 95 29 58
Route #11: 85 92 86 6 28 24 23 69 73 21 42
Route #12: 74 3 87 13 54 91 25 4 59 31 41
Route #13: 201 137 55 156 110 66 40 94 56 11 51 61
Route #14: 197 139 89 93 165 180 158 146 103 184 163 57
Route #15: 141 140 185 147 14 102 10 44 81 117 125 22
Route #16: 68 129 47 171 161 130 175 168 115 138 191
Route #17: 76 97 196 108 178 107 149 192 126 134 1
Route #18: 8 166 121 112 111 187 9 154 133 127 132
Route #19: 118 98 159 188 172 193 114 190 104 176 151
Cost 19572.5
